
Gurobi 7.5.1 (win64, Python) logging started 02/19/18 02:07:28

Academic license - for non-commercial use only

Gurobi 7.5.1 (win64, Python) logging started 02/19/18 02:08:06

Academic license - for non-commercial use only
